(set-info :smt-lib-version 2.6)
(set-logic QF_NIA)
(set-info :source |
Generated by: Cristina Borralleras, Daniel Larraz, Albert Oliveras, Enric Rodriguez-Carbonell, Albert Rubio
Generated on: 2017-04-27
Generator: VeryMax
Application: Termination proving
Target solver: barcelogic
|)
(set-info :license "https://creativecommons.org/licenses/by/4.0/")
(set-info :category "industrial")
(set-info :status sat)
(declare-fun Nl9main_i1 () Int)
(declare-fun Nl9main_j1 () Int)
(declare-fun Nl9main_k1 () Int)
(declare-fun Nl9main_m1 () Int)
(declare-fun Nl9main_n1 () Int)
(declare-fun Nl9main_N1 () Int)
(declare-fun Nl12main_i1 () Int)
(declare-fun Nl12main_j1 () Int)
(declare-fun Nl12main_k1 () Int)
(declare-fun Nl12main_m1 () Int)
(declare-fun Nl12main_n1 () Int)
(declare-fun Nl12main_N1 () Int)
(declare-fun Nl9main_i2 () Int)
(declare-fun Nl9main_j2 () Int)
(declare-fun Nl9main_k2 () Int)
(declare-fun Nl9main_m2 () Int)
(declare-fun Nl9main_n2 () Int)
(declare-fun Nl9main_N2 () Int)
(declare-fun Nl12main_i2 () Int)
(declare-fun Nl12main_j2 () Int)
(declare-fun Nl12main_k2 () Int)
(declare-fun Nl12main_m2 () Int)
(declare-fun Nl12main_n2 () Int)
(declare-fun Nl12main_N2 () Int)
(declare-fun lam0n0 () Int)
(declare-fun lam0n1 () Int)
(declare-fun lam0n2 () Int)
(declare-fun Nl9CT1 () Int)
(declare-fun Nl9CT2 () Int)
(declare-fun lam1n0 () Int)
(declare-fun lam1n1 () Int)
(declare-fun lam1n2 () Int)
(declare-fun Nl12CT1 () Int)
(declare-fun lam2n0 () Int)
(declare-fun lam2n1 () Int)
(declare-fun lam2n2 () Int)
(declare-fun Nl12CT2 () Int)
(declare-fun lam3n0 () Int)
(declare-fun lam3n1 () Int)
(declare-fun lam3n2 () Int)
(declare-fun lam3n3 () Int)
(declare-fun lam4n0 () Int)
(declare-fun lam4n1 () Int)
(declare-fun lam4n2 () Int)
(declare-fun lam4n3 () Int)
(declare-fun lam5n0 () Int)
(declare-fun lam5n1 () Int)
(declare-fun lam5n2 () Int)
(declare-fun lam5n3 () Int)
(declare-fun lam6n0 () Int)
(declare-fun lam6n1 () Int)
(declare-fun lam6n2 () Int)
(declare-fun lam7n0 () Int)
(declare-fun lam7n1 () Int)
(declare-fun lam7n2 () Int)
(declare-fun lam8n0 () Int)
(declare-fun lam8n1 () Int)
(declare-fun lam8n2 () Int)
(declare-fun lam9n0 () Int)
(declare-fun lam9n1 () Int)
(declare-fun lam9n2 () Int)
(declare-fun lam10n0 () Int)
(declare-fun lam10n1 () Int)
(declare-fun lam10n2 () Int)
(declare-fun lam11n0 () Int)
(declare-fun lam11n1 () Int)
(declare-fun lam11n2 () Int)
(declare-fun lam12n0 () Int)
(declare-fun lam12n1 () Int)
(declare-fun lam12n2 () Int)
(declare-fun lam12n3 () Int)
(declare-fun lam12n4 () Int)
(declare-fun lam12n5 () Int)
(declare-fun lam12n6 () Int)
(declare-fun lam13n0 () Int)
(declare-fun lam13n1 () Int)
(declare-fun lam13n2 () Int)
(declare-fun lam13n3 () Int)
(declare-fun lam13n4 () Int)
(declare-fun lam13n5 () Int)
(declare-fun lam13n6 () Int)
(declare-fun undef11 () Int)
(declare-fun undef12 () Int)
(declare-fun undef10 () Int)
(declare-fun main_k () Int)
(declare-fun undef9 () Int)
(declare-fun main_m () Int)
(declare-fun main_n () Int)
(declare-fun main_N () Int)
(declare-fun lam17n0 () Int)
(declare-fun lam17n1 () Int)
(declare-fun lam17n2 () Int)
(declare-fun RFN1_CT () Int)
(declare-fun RFN1_main_j () Int)
(declare-fun RFN1_main_k () Int)
(declare-fun RFN1_main_i () Int)
(declare-fun RFN1_main_m () Int)
(declare-fun RFN1_main_n () Int)
(declare-fun RFN1_main_N () Int)
(declare-fun lam21n0 () Int)
(declare-fun lam21n1 () Int)
(declare-fun lam21n2 () Int)
(declare-fun lam21n3 () Int)
(declare-fun lam25n0 () Int)
(declare-fun lam25n1 () Int)
(declare-fun lam25n2 () Int)
(declare-fun lam29n0 () Int)
(declare-fun lam29n1 () Int)
(declare-fun lam29n2 () Int)
(declare-fun lam15n0 () Int)
(declare-fun lam15n1 () Int)
(declare-fun lam15n2 () Int)
(declare-fun lam16n0 () Int)
(declare-fun lam16n1 () Int)
(declare-fun lam16n2 () Int)
(declare-fun lam19n0 () Int)
(declare-fun lam19n1 () Int)
(declare-fun lam19n2 () Int)
(declare-fun lam19n3 () Int)
(declare-fun lam20n0 () Int)
(declare-fun lam20n1 () Int)
(declare-fun lam20n2 () Int)
(declare-fun lam20n3 () Int)
(declare-fun lam23n0 () Int)
(declare-fun lam23n1 () Int)
(declare-fun lam23n2 () Int)
(declare-fun lam24n0 () Int)
(declare-fun lam24n1 () Int)
(declare-fun lam24n2 () Int)
(declare-fun lam27n0 () Int)
(declare-fun lam27n1 () Int)
(declare-fun lam27n2 () Int)
(declare-fun lam28n0 () Int)
(declare-fun lam28n1 () Int)
(declare-fun lam28n2 () Int)
(declare-fun lam14n0 () Int)
(declare-fun lam14n1 () Int)
(declare-fun lam14n2 () Int)
(declare-fun lam18n0 () Int)
(declare-fun lam18n1 () Int)
(declare-fun lam18n2 () Int)
(declare-fun lam18n3 () Int)
(declare-fun lam22n0 () Int)
(declare-fun lam22n1 () Int)
(declare-fun lam22n2 () Int)
(declare-fun lam26n0 () Int)
(declare-fun lam26n1 () Int)
(declare-fun lam26n2 () Int)
(assert ( and ( <= ( - 1 ) Nl9main_i1 ) ( <= Nl9main_i1 1 ) ( <= ( - 1 ) Nl9main_j1 ) ( <= Nl9main_j1 1 ) ( <= ( - 1 ) Nl9main_k1 ) ( <= Nl9main_k1 1 ) ( <= ( - 1 ) Nl9main_m1 ) ( <= Nl9main_m1 1 ) ( <= ( - 1 ) Nl9main_n1 ) ( <= Nl9main_n1 1 ) ( <= ( - 1 ) Nl9main_N1 ) ( <= Nl9main_N1 1 ) ( <= ( - 1 ) Nl12main_i1 ) ( <= Nl12main_i1 1 ) ( <= ( - 1 ) Nl12main_j1 ) ( <= Nl12main_j1 1 ) ( <= ( - 1 ) Nl12main_k1 ) ( <= Nl12main_k1 1 ) ( <= ( - 1 ) Nl12main_m1 ) ( <= Nl12main_m1 1 ) ( <= ( - 1 ) Nl12main_n1 ) ( <= Nl12main_n1 1 ) ( <= ( - 1 ) Nl12main_N1 ) ( <= Nl12main_N1 1 ) ( <= ( - 1 ) Nl9main_i2 ) ( <= Nl9main_i2 1 ) ( <= ( - 1 ) Nl9main_j2 ) ( <= Nl9main_j2 1 ) ( <= ( - 1 ) Nl9main_k2 ) ( <= Nl9main_k2 1 ) ( <= ( - 1 ) Nl9main_m2 ) ( <= Nl9main_m2 1 ) ( <= ( - 1 ) Nl9main_n2 ) ( <= Nl9main_n2 1 ) ( <= ( - 1 ) Nl9main_N2 ) ( <= Nl9main_N2 1 ) ( <= ( - 1 ) Nl12main_i2 ) ( <= Nl12main_i2 1 ) ( <= ( - 1 ) Nl12main_j2 ) ( <= Nl12main_j2 1 ) ( <= ( - 1 ) Nl12main_k2 ) ( <= Nl12main_k2 1 ) ( <= ( - 1 ) Nl12main_m2 ) ( <= Nl12main_m2 1 ) ( <= ( - 1 ) Nl12main_n2 ) ( <= Nl12main_n2 1 ) ( <= ( - 1 ) Nl12main_N2 ) ( <= Nl12main_N2 1 ) ))
(assert ( or ( and ( >= lam0n0 0 ) ( >= lam0n1 0 ) ( >= lam0n2 0 ) ( > ( + ( * 1 lam0n0 ) ( * Nl9CT1 lam0n1 ) ( * Nl9CT2 lam0n2 ) ( - 1 ) ) 0 ) ( = ( + ( * Nl9main_i1 lam0n1 ) ( * Nl9main_i2 lam0n2 ) ) 0 ) ( = ( + ( * 1 lam0n0 ) ( * Nl9main_j1 lam0n1 ) ( * Nl9main_j2 lam0n2 ) ) 0 ) ( = ( + ( * Nl9main_k1 lam0n1 ) ( * Nl9main_k2 lam0n2 ) ) 0 ) ( = ( + ( * ( - 1 ) lam0n0 ) ( * Nl9main_m1 lam0n1 ) ( * Nl9main_m2 lam0n2 ) ) 0 ) ( = ( + ( * Nl9main_n1 lam0n1 ) ( * Nl9main_n2 lam0n2 ) ) 0 ) ( = ( + ( * Nl9main_N1 lam0n1 ) ( * Nl9main_N2 lam0n2 ) ) 0 ) ) ( and ( >= lam1n0 0 ) ( >= lam1n1 0 ) ( >= lam1n2 0 ) ( > ( + ( * 1 lam1n0 ) ( * Nl9CT1 lam1n1 ) ( * Nl9CT2 lam1n2 ) ( - 1 ( + ( + Nl12CT1 ( * Nl12main_j1 1 ) ) ( * Nl12main_k1 0 ) ) ) ) 0 ) ( = ( + ( * Nl9main_i1 lam1n1 ) ( * Nl9main_i2 lam1n2 ) ( - ( + ( + 0 Nl12main_i1 ) ( * Nl12main_k1 1 ) ) ) ) 0 ) ( = ( + ( * 1 lam1n0 ) ( * Nl9main_j1 lam1n1 ) ( * Nl9main_j2 lam1n2 ) ( - ( + 0 ( * Nl12main_j1 1 ) ) ) ) 0 ) ( = ( + ( * Nl9main_k1 lam1n1 ) ( * Nl9main_k2 lam1n2 ) ) 0 ) ( = ( + ( * ( - 1 ) lam1n0 ) ( * Nl9main_m1 lam1n1 ) ( * Nl9main_m2 lam1n2 ) ( - ( + 0 Nl12main_m1 ) ) ) 0 ) ( = ( + ( * Nl9main_n1 lam1n1 ) ( * Nl9main_n2 lam1n2 ) ( - ( + 0 Nl12main_n1 ) ) ) 0 ) ( = ( + ( * Nl9main_N1 lam1n1 ) ( * Nl9main_N2 lam1n2 ) ( - ( + 0 Nl12main_N1 ) ) ) 0 ) ) ))
(assert ( or ( and ( >= lam0n0 0 ) ( >= lam0n1 0 ) ( >= lam0n2 0 ) ( > ( + ( * 1 lam0n0 ) ( * Nl9CT1 lam0n1 ) ( * Nl9CT2 lam0n2 ) ( - 1 ) ) 0 ) ( = ( + ( * Nl9main_i1 lam0n1 ) ( * Nl9main_i2 lam0n2 ) ) 0 ) ( = ( + ( * 1 lam0n0 ) ( * Nl9main_j1 lam0n1 ) ( * Nl9main_j2 lam0n2 ) ) 0 ) ( = ( + ( * Nl9main_k1 lam0n1 ) ( * Nl9main_k2 lam0n2 ) ) 0 ) ( = ( + ( * ( - 1 ) lam0n0 ) ( * Nl9main_m1 lam0n1 ) ( * Nl9main_m2 lam0n2 ) ) 0 ) ( = ( + ( * Nl9main_n1 lam0n1 ) ( * Nl9main_n2 lam0n2 ) ) 0 ) ( = ( + ( * Nl9main_N1 lam0n1 ) ( * Nl9main_N2 lam0n2 ) ) 0 ) ) ( and ( >= lam2n0 0 ) ( >= lam2n1 0 ) ( >= lam2n2 0 ) ( > ( + ( * 1 lam2n0 ) ( * Nl9CT1 lam2n1 ) ( * Nl9CT2 lam2n2 ) ( - 1 ( + ( + Nl12CT2 ( * Nl12main_j2 1 ) ) ( * Nl12main_k2 0 ) ) ) ) 0 ) ( = ( + ( * Nl9main_i1 lam2n1 ) ( * Nl9main_i2 lam2n2 ) ( - ( + ( + 0 Nl12main_i2 ) ( * Nl12main_k2 1 ) ) ) ) 0 ) ( = ( + ( * 1 lam2n0 ) ( * Nl9main_j1 lam2n1 ) ( * Nl9main_j2 lam2n2 ) ( - ( + 0 ( * Nl12main_j2 1 ) ) ) ) 0 ) ( = ( + ( * Nl9main_k1 lam2n1 ) ( * Nl9main_k2 lam2n2 ) ) 0 ) ( = ( + ( * ( - 1 ) lam2n0 ) ( * Nl9main_m1 lam2n1 ) ( * Nl9main_m2 lam2n2 ) ( - ( + 0 Nl12main_m2 ) ) ) 0 ) ( = ( + ( * Nl9main_n1 lam2n1 ) ( * Nl9main_n2 lam2n2 ) ( - ( + 0 Nl12main_n2 ) ) ) 0 ) ( = ( + ( * Nl9main_N1 lam2n1 ) ( * Nl9main_N2 lam2n2 ) ( - ( + 0 Nl12main_N2 ) ) ) 0 ) ) ))
(assert ( or ( and ( >= lam3n0 0 ) ( >= lam3n1 0 ) ( >= lam3n2 0 ) ( >= lam3n3 0 ) ( > ( + ( * 2 lam3n1 ) ( * Nl9CT1 lam3n2 ) ( * Nl9CT2 lam3n3 ) ( - 1 ) ) 0 ) ( = ( + ( * 1 lam3n1 ) ( * Nl9main_i1 lam3n2 ) ( * Nl9main_i2 lam3n3 ) ) 0 ) ( = ( + ( * ( - 1 ) lam3n0 ) ( * Nl9main_j1 lam3n2 ) ( * Nl9main_j2 lam3n3 ) ) 0 ) ( = ( + ( * Nl9main_k1 lam3n2 ) ( * Nl9main_k2 lam3n3 ) ) 0 ) ( = ( + ( * 1 lam3n0 ) ( * Nl9main_m1 lam3n2 ) ( * Nl9main_m2 lam3n3 ) ) 0 ) ( = ( + ( * ( - 1 ) lam3n1 ) ( * Nl9main_n1 lam3n2 ) ( * Nl9main_n2 lam3n3 ) ) 0 ) ( = ( + ( * Nl9main_N1 lam3n2 ) ( * Nl9main_N2 lam3n3 ) ) 0 ) ) ( and ( >= lam4n0 0 ) ( >= lam4n1 0 ) ( >= lam4n2 0 ) ( >= lam4n3 0 ) ( > ( + ( * 2 lam4n1 ) ( * Nl9CT1 lam4n2 ) ( * Nl9CT2 lam4n3 ) ( - 1 ( + ( + Nl9CT1 ( * Nl9main_i1 1 ) ) ( * Nl9main_j1 0 ) ) ) ) 0 ) ( = ( + ( * 1 lam4n1 ) ( * Nl9main_i1 lam4n2 ) ( * Nl9main_i2 lam4n3 ) ( - ( + 0 ( * Nl9main_i1 1 ) ) ) ) 0 ) ( = ( + ( * ( - 1 ) lam4n0 ) ( * Nl9main_j1 lam4n2 ) ( * Nl9main_j2 lam4n3 ) ) 0 ) ( = ( + ( * Nl9main_k1 lam4n2 ) ( * Nl9main_k2 lam4n3 ) ( - ( + 0 Nl9main_k1 ) ) ) 0 ) ( = ( + ( * 1 lam4n0 ) ( * Nl9main_m1 lam4n2 ) ( * Nl9main_m2 lam4n3 ) ( - ( + 0 Nl9main_m1 ) ) ) 0 ) ( = ( + ( * ( - 1 ) lam4n1 ) ( * Nl9main_n1 lam4n2 ) ( * Nl9main_n2 lam4n3 ) ( - ( + 0 Nl9main_n1 ) ) ) 0 ) ( = ( + ( * Nl9main_N1 lam4n2 ) ( * Nl9main_N2 lam4n3 ) ( - ( + 0 Nl9main_N1 ) ) ) 0 ) ) ))
(assert ( or ( and ( >= lam3n0 0 ) ( >= lam3n1 0 ) ( >= lam3n2 0 ) ( >= lam3n3 0 ) ( > ( + ( * 2 lam3n1 ) ( * Nl9CT1 lam3n2 ) ( * Nl9CT2 lam3n3 ) ( - 1 ) ) 0 ) ( = ( + ( * 1 lam3n1 ) ( * Nl9main_i1 lam3n2 ) ( * Nl9main_i2 lam3n3 ) ) 0 ) ( = ( + ( * ( - 1 ) lam3n0 ) ( * Nl9main_j1 lam3n2 ) ( * Nl9main_j2 lam3n3 ) ) 0 ) ( = ( + ( * Nl9main_k1 lam3n2 ) ( * Nl9main_k2 lam3n3 ) ) 0 ) ( = ( + ( * 1 lam3n0 ) ( * Nl9main_m1 lam3n2 ) ( * Nl9main_m2 lam3n3 ) ) 0 ) ( = ( + ( * ( - 1 ) lam3n1 ) ( * Nl9main_n1 lam3n2 ) ( * Nl9main_n2 lam3n3 ) ) 0 ) ( = ( + ( * Nl9main_N1 lam3n2 ) ( * Nl9main_N2 lam3n3 ) ) 0 ) ) ( and ( >= lam5n0 0 ) ( >= lam5n1 0 ) ( >= lam5n2 0 ) ( >= lam5n3 0 ) ( > ( + ( * 2 lam5n1 ) ( * Nl9CT1 lam5n2 ) ( * Nl9CT2 lam5n3 ) ( - 1 ( + ( + Nl9CT2 ( * Nl9main_i2 1 ) ) ( * Nl9main_j2 0 ) ) ) ) 0 ) ( = ( + ( * 1 lam5n1 ) ( * Nl9main_i1 lam5n2 ) ( * Nl9main_i2 lam5n3 ) ( - ( + 0 ( * Nl9main_i2 1 ) ) ) ) 0 ) ( = ( + ( * ( - 1 ) lam5n0 ) ( * Nl9main_j1 lam5n2 ) ( * Nl9main_j2 lam5n3 ) ) 0 ) ( = ( + ( * Nl9main_k1 lam5n2 ) ( * Nl9main_k2 lam5n3 ) ( - ( + 0 Nl9main_k2 ) ) ) 0 ) ( = ( + ( * 1 lam5n0 ) ( * Nl9main_m1 lam5n2 ) ( * Nl9main_m2 lam5n3 ) ( - ( + 0 Nl9main_m2 ) ) ) 0 ) ( = ( + ( * ( - 1 ) lam5n1 ) ( * Nl9main_n1 lam5n2 ) ( * Nl9main_n2 lam5n3 ) ( - ( + 0 Nl9main_n2 ) ) ) 0 ) ( = ( + ( * Nl9main_N1 lam5n2 ) ( * Nl9main_N2 lam5n3 ) ( - ( + 0 Nl9main_N2 ) ) ) 0 ) ) ))
(assert ( or ( and ( >= lam6n0 0 ) ( >= lam6n1 0 ) ( >= lam6n2 0 ) ( > ( + ( * 1 lam6n0 ) ( * Nl12CT1 lam6n1 ) ( * Nl12CT2 lam6n2 ) ( - 1 ) ) 0 ) ( = ( + ( * Nl12main_i1 lam6n1 ) ( * Nl12main_i2 lam6n2 ) ) 0 ) ( = ( + ( * Nl12main_j1 lam6n1 ) ( * Nl12main_j2 lam6n2 ) ) 0 ) ( = ( + ( * 1 lam6n0 ) ( * Nl12main_k1 lam6n1 ) ( * Nl12main_k2 lam6n2 ) ) 0 ) ( = ( + ( * Nl12main_m1 lam6n1 ) ( * Nl12main_m2 lam6n2 ) ) 0 ) ( = ( + ( * Nl12main_n1 lam6n1 ) ( * Nl12main_n2 lam6n2 ) ) 0 ) ( = ( + ( * ( - 1 ) lam6n0 ) ( * Nl12main_N1 lam6n1 ) ( * Nl12main_N2 lam6n2 ) ) 0 ) ) ( and ( >= lam7n0 0 ) ( >= lam7n1 0 ) ( >= lam7n2 0 ) ( > ( + ( * 1 lam7n0 ) ( * Nl12CT1 lam7n1 ) ( * Nl12CT2 lam7n2 ) ( - 1 ( + Nl12CT1 ( * Nl12main_k1 1 ) ) ) ) 0 ) ( = ( + ( * Nl12main_i1 lam7n1 ) ( * Nl12main_i2 lam7n2 ) ( - ( + 0 Nl12main_i1 ) ) ) 0 ) ( = ( + ( * Nl12main_j1 lam7n1 ) ( * Nl12main_j2 lam7n2 ) ( - ( + 0 Nl12main_j1 ) ) ) 0 ) ( = ( + ( * 1 lam7n0 ) ( * Nl12main_k1 lam7n1 ) ( * Nl12main_k2 lam7n2 ) ( - ( + 0 ( * Nl12main_k1 1 ) ) ) ) 0 ) ( = ( + ( * Nl12main_m1 lam7n1 ) ( * Nl12main_m2 lam7n2 ) ( - ( + 0 Nl12main_m1 ) ) ) 0 ) ( = ( + ( * Nl12main_n1 lam7n1 ) ( * Nl12main_n2 lam7n2 ) ( - ( + 0 Nl12main_n1 ) ) ) 0 ) ( = ( + ( * ( - 1 ) lam7n0 ) ( * Nl12main_N1 lam7n1 ) ( * Nl12main_N2 lam7n2 ) ( - ( + 0 Nl12main_N1 ) ) ) 0 ) ) ))
(assert ( or ( and ( >= lam6n0 0 ) ( >= lam6n1 0 ) ( >= lam6n2 0 ) ( > ( + ( * 1 lam6n0 ) ( * Nl12CT1 lam6n1 ) ( * Nl12CT2 lam6n2 ) ( - 1 ) ) 0 ) ( = ( + ( * Nl12main_i1 lam6n1 ) ( * Nl12main_i2 lam6n2 ) ) 0 ) ( = ( + ( * Nl12main_j1 lam6n1 ) ( * Nl12main_j2 lam6n2 ) ) 0 ) ( = ( + ( * 1 lam6n0 ) ( * Nl12main_k1 lam6n1 ) ( * Nl12main_k2 lam6n2 ) ) 0 ) ( = ( + ( * Nl12main_m1 lam6n1 ) ( * Nl12main_m2 lam6n2 ) ) 0 ) ( = ( + ( * Nl12main_n1 lam6n1 ) ( * Nl12main_n2 lam6n2 ) ) 0 ) ( = ( + ( * ( - 1 ) lam6n0 ) ( * Nl12main_N1 lam6n1 ) ( * Nl12main_N2 lam6n2 ) ) 0 ) ) ( and ( >= lam8n0 0 ) ( >= lam8n1 0 ) ( >= lam8n2 0 ) ( > ( + ( * 1 lam8n0 ) ( * Nl12CT1 lam8n1 ) ( * Nl12CT2 lam8n2 ) ( - 1 ( + Nl12CT2 ( * Nl12main_k2 1 ) ) ) ) 0 ) ( = ( + ( * Nl12main_i1 lam8n1 ) ( * Nl12main_i2 lam8n2 ) ( - ( + 0 Nl12main_i2 ) ) ) 0 ) ( = ( + ( * Nl12main_j1 lam8n1 ) ( * Nl12main_j2 lam8n2 ) ( - ( + 0 Nl12main_j2 ) ) ) 0 ) ( = ( + ( * 1 lam8n0 ) ( * Nl12main_k1 lam8n1 ) ( * Nl12main_k2 lam8n2 ) ( - ( + 0 ( * Nl12main_k2 1 ) ) ) ) 0 ) ( = ( + ( * Nl12main_m1 lam8n1 ) ( * Nl12main_m2 lam8n2 ) ( - ( + 0 Nl12main_m2 ) ) ) 0 ) ( = ( + ( * Nl12main_n1 lam8n1 ) ( * Nl12main_n2 lam8n2 ) ( - ( + 0 Nl12main_n2 ) ) ) 0 ) ( = ( + ( * ( - 1 ) lam8n0 ) ( * Nl12main_N1 lam8n1 ) ( * Nl12main_N2 lam8n2 ) ( - ( + 0 Nl12main_N2 ) ) ) 0 ) ) ))
(assert ( or ( and ( >= lam9n0 0 ) ( >= lam9n1 0 ) ( >= lam9n2 0 ) ( > ( + ( * Nl12CT1 lam9n1 ) ( * Nl12CT2 lam9n2 ) ( - 1 ) ) 0 ) ( = ( + ( * Nl12main_i1 lam9n1 ) ( * Nl12main_i2 lam9n2 ) ) 0 ) ( = ( + ( * Nl12main_j1 lam9n1 ) ( * Nl12main_j2 lam9n2 ) ) 0 ) ( = ( + ( * ( - 1 ) lam9n0 ) ( * Nl12main_k1 lam9n1 ) ( * Nl12main_k2 lam9n2 ) ) 0 ) ( = ( + ( * Nl12main_m1 lam9n1 ) ( * Nl12main_m2 lam9n2 ) ) 0 ) ( = ( + ( * Nl12main_n1 lam9n1 ) ( * Nl12main_n2 lam9n2 ) ) 0 ) ( = ( + ( * 1 lam9n0 ) ( * Nl12main_N1 lam9n1 ) ( * Nl12main_N2 lam9n2 ) ) 0 ) ) ( and ( >= lam10n0 0 ) ( >= lam10n1 0 ) ( >= lam10n2 0 ) ( > ( + ( * Nl12CT1 lam10n1 ) ( * Nl12CT2 lam10n2 ) ( - 1 ( + Nl9CT1 ( * Nl9main_i1 0 ) ) ) ) 0 ) ( = ( + ( * Nl12main_i1 lam10n1 ) ( * Nl12main_i2 lam10n2 ) ) 0 ) ( = ( + ( * Nl12main_j1 lam10n1 ) ( * Nl12main_j2 lam10n2 ) ( - ( + 0 Nl9main_j1 ) ) ) 0 ) ( = ( + ( * ( - 1 ) lam10n0 ) ( * Nl12main_k1 lam10n1 ) ( * Nl12main_k2 lam10n2 ) ( - ( + ( + 0 ( * Nl9main_i1 1 ) ) Nl9main_k1 ) ) ) 0 ) ( = ( + ( * Nl12main_m1 lam10n1 ) ( * Nl12main_m2 lam10n2 ) ( - ( + 0 Nl9main_m1 ) ) ) 0 ) ( = ( + ( * Nl12main_n1 lam10n1 ) ( * Nl12main_n2 lam10n2 ) ( - ( + 0 Nl9main_n1 ) ) ) 0 ) ( = ( + ( * 1 lam10n0 ) ( * Nl12main_N1 lam10n1 ) ( * Nl12main_N2 lam10n2 ) ( - ( + 0 Nl9main_N1 ) ) ) 0 ) ) ))
(assert ( or ( and ( >= lam9n0 0 ) ( >= lam9n1 0 ) ( >= lam9n2 0 ) ( > ( + ( * Nl12CT1 lam9n1 ) ( * Nl12CT2 lam9n2 ) ( - 1 ) ) 0 ) ( = ( + ( * Nl12main_i1 lam9n1 ) ( * Nl12main_i2 lam9n2 ) ) 0 ) ( = ( + ( * Nl12main_j1 lam9n1 ) ( * Nl12main_j2 lam9n2 ) ) 0 ) ( = ( + ( * ( - 1 ) lam9n0 ) ( * Nl12main_k1 lam9n1 ) ( * Nl12main_k2 lam9n2 ) ) 0 ) ( = ( + ( * Nl12main_m1 lam9n1 ) ( * Nl12main_m2 lam9n2 ) ) 0 ) ( = ( + ( * Nl12main_n1 lam9n1 ) ( * Nl12main_n2 lam9n2 ) ) 0 ) ( = ( + ( * 1 lam9n0 ) ( * Nl12main_N1 lam9n1 ) ( * Nl12main_N2 lam9n2 ) ) 0 ) ) ( and ( >= lam11n0 0 ) ( >= lam11n1 0 ) ( >= lam11n2 0 ) ( > ( + ( * Nl12CT1 lam11n1 ) ( * Nl12CT2 lam11n2 ) ( - 1 ( + Nl9CT2 ( * Nl9main_i2 0 ) ) ) ) 0 ) ( = ( + ( * Nl12main_i1 lam11n1 ) ( * Nl12main_i2 lam11n2 ) ) 0 ) ( = ( + ( * Nl12main_j1 lam11n1 ) ( * Nl12main_j2 lam11n2 ) ( - ( + 0 Nl9main_j2 ) ) ) 0 ) ( = ( + ( * ( - 1 ) lam11n0 ) ( * Nl12main_k1 lam11n1 ) ( * Nl12main_k2 lam11n2 ) ( - ( + ( + 0 ( * Nl9main_i2 1 ) ) Nl9main_k2 ) ) ) 0 ) ( = ( + ( * Nl12main_m1 lam11n1 ) ( * Nl12main_m2 lam11n2 ) ( - ( + 0 Nl9main_m2 ) ) ) 0 ) ( = ( + ( * Nl12main_n1 lam11n1 ) ( * Nl12main_n2 lam11n2 ) ( - ( + 0 Nl9main_n2 ) ) ) 0 ) ( = ( + ( * 1 lam11n0 ) ( * Nl12main_N1 lam11n1 ) ( * Nl12main_N2 lam11n2 ) ( - ( + 0 Nl9main_N2 ) ) ) 0 ) ) ))
(assert ( and ( <= ( * ( - 1 ) undef11 ) 0 ) ( <= ( * ( - 1 ) undef12 ) 0 ) ( <= ( + 1 ( * ( - 1 ) undef10 ) ) 0 ) ( = ( + main_k ( * ( - 1 ) undef9 ) ) 0 ) ( = ( + main_m ( * ( - 1 ) undef11 ) ) 0 ) ( = ( + main_n ( * ( - 1 ) undef10 ) ) 0 ) ( = ( + main_N ( * ( - 1 ) undef12 ) ) 0 ) ( <= ( + ( + ( + Nl9CT1 ( * Nl9main_i1 0 ) ) ( * Nl9main_j1 0 ) ) ( * ( + 0 Nl9main_k1 ) main_k ) ( * ( + 0 Nl9main_m1 ) main_m ) ( * ( + 0 Nl9main_n1 ) main_n ) ( * ( + 0 Nl9main_N1 ) main_N ) ) 0 ) ( <= ( + ( + ( + Nl9CT2 ( * Nl9main_i2 0 ) ) ( * Nl9main_j2 0 ) ) ( * ( + 0 Nl9main_k2 ) main_k ) ( * ( + 0 Nl9main_m2 ) main_m ) ( * ( + 0 Nl9main_n2 ) main_n ) ( * ( + 0 Nl9main_N2 ) main_N ) ) 0 ) ))
(assert ( or ( and ( and ( and ( >= lam17n0 0 ) ( >= lam17n1 0 ) ( >= lam17n2 0 ) ( > ( + ( * 1 lam17n0 ) ( * Nl9CT1 lam17n1 ) ( * Nl9CT2 lam17n2 ) ( - 1 ( - ( + ( + RFN1_CT ( * RFN1_main_j 1 ) ) ( * RFN1_main_k 0 ) ) RFN1_CT ) ) ) 0 ) ( = ( + ( * Nl9main_i1 lam17n1 ) ( * Nl9main_i2 lam17n2 ) ( - ( - ( + ( + 0 RFN1_main_i ) ( * RFN1_main_k 1 ) ) RFN1_main_i ) ) ) 0 ) ( = ( + ( * 1 lam17n0 ) ( * Nl9main_j1 lam17n1 ) ( * Nl9main_j2 lam17n2 ) ( - ( - ( + 0 ( * RFN1_main_j 1 ) ) RFN1_main_j ) ) ) 0 ) ( = ( + ( * Nl9main_k1 lam17n1 ) ( * Nl9main_k2 lam17n2 ) ( - ( - RFN1_main_k ) ) ) 0 ) ( = ( + ( * ( - 1 ) lam17n0 ) ( * Nl9main_m1 lam17n1 ) ( * Nl9main_m2 lam17n2 ) ( - ( - ( + 0 RFN1_main_m ) RFN1_main_m ) ) ) 0 ) ( = ( + ( * Nl9main_n1 lam17n1 ) ( * Nl9main_n2 lam17n2 ) ( - ( - ( + 0 RFN1_main_n ) RFN1_main_n ) ) ) 0 ) ( = ( + ( * Nl9main_N1 lam17n1 ) ( * Nl9main_N2 lam17n2 ) ( - ( - ( + 0 RFN1_main_N ) RFN1_main_N ) ) ) 0 ) ) ( and ( >= lam21n0 0 ) ( >= lam21n1 0 ) ( >= lam21n2 0 ) ( >= lam21n3 0 ) ( > ( + ( * 2 lam21n1 ) ( * Nl9CT1 lam21n2 ) ( * Nl9CT2 lam21n3 ) ( - 1 ( - ( + ( + RFN1_CT ( * RFN1_main_i 1 ) ) ( * RFN1_main_j 0 ) ) RFN1_CT ) ) ) 0 ) ( = ( + ( * 1 lam21n1 ) ( * Nl9main_i1 lam21n2 ) ( * Nl9main_i2 lam21n3 ) ( - ( - ( + 0 ( * RFN1_main_i 1 ) ) RFN1_main_i ) ) ) 0 ) ( = ( + ( * ( - 1 ) lam21n0 ) ( * Nl9main_j1 lam21n2 ) ( * Nl9main_j2 lam21n3 ) ( - ( - RFN1_main_j ) ) ) 0 ) ( = ( + ( * Nl9main_k1 lam21n2 ) ( * Nl9main_k2 lam21n3 ) ( - ( - ( + 0 RFN1_main_k ) RFN1_main_k ) ) ) 0 ) ( = ( + ( * 1 lam21n0 ) ( * Nl9main_m1 lam21n2 ) ( * Nl9main_m2 lam21n3 ) ( - ( - ( + 0 RFN1_main_m ) RFN1_main_m ) ) ) 0 ) ( = ( + ( * ( - 1 ) lam21n1 ) ( * Nl9main_n1 lam21n2 ) ( * Nl9main_n2 lam21n3 ) ( - ( - ( + 0 RFN1_main_n ) RFN1_main_n ) ) ) 0 ) ( = ( + ( * Nl9main_N1 lam21n2 ) ( * Nl9main_N2 lam21n3 ) ( - ( - ( + 0 RFN1_main_N ) RFN1_main_N ) ) ) 0 ) ) ( and ( >= lam25n0 0 ) ( >= lam25n1 0 ) ( >= lam25n2 0 ) ( > ( + ( * 1 lam25n0 ) ( * Nl12CT1 lam25n1 ) ( * Nl12CT2 lam25n2 ) ( - 1 ( - ( + RFN1_CT ( * RFN1_main_k 1 ) ) RFN1_CT ) ) ) 0 ) ( = ( + ( * Nl12main_i1 lam25n1 ) ( * Nl12main_i2 lam25n2 ) ( - ( - ( + 0 RFN1_main_i ) RFN1_main_i ) ) ) 0 ) ( = ( + ( * Nl12main_j1 lam25n1 ) ( * Nl12main_j2 lam25n2 ) ( - ( - ( + 0 RFN1_main_j ) RFN1_main_j ) ) ) 0 ) ( = ( + ( * 1 lam25n0 ) ( * Nl12main_k1 lam25n1 ) ( * Nl12main_k2 lam25n2 ) ( - ( - ( + 0 ( * RFN1_main_k 1 ) ) RFN1_main_k ) ) ) 0 ) ( = ( + ( * Nl12main_m1 lam25n1 ) ( * Nl12main_m2 lam25n2 ) ( - ( - ( + 0 RFN1_main_m ) RFN1_main_m ) ) ) 0 ) ( = ( + ( * Nl12main_n1 lam25n1 ) ( * Nl12main_n2 lam25n2 ) ( - ( - ( + 0 RFN1_main_n ) RFN1_main_n ) ) ) 0 ) ( = ( + ( * ( - 1 ) lam25n0 ) ( * Nl12main_N1 lam25n1 ) ( * Nl12main_N2 lam25n2 ) ( - ( - ( + 0 RFN1_main_N ) RFN1_main_N ) ) ) 0 ) ) ( and ( >= lam29n0 0 ) ( >= lam29n1 0 ) ( >= lam29n2 0 ) ( > ( + ( * Nl12CT1 lam29n1 ) ( * Nl12CT2 lam29n2 ) ( - 1 ( - ( + RFN1_CT ( * RFN1_main_i 0 ) ) RFN1_CT ) ) ) 0 ) ( = ( + ( * Nl12main_i1 lam29n1 ) ( * Nl12main_i2 lam29n2 ) ( - ( - RFN1_main_i ) ) ) 0 ) ( = ( + ( * Nl12main_j1 lam29n1 ) ( * Nl12main_j2 lam29n2 ) ( - ( - ( + 0 RFN1_main_j ) RFN1_main_j ) ) ) 0 ) ( = ( + ( * ( - 1 ) lam29n0 ) ( * Nl12main_k1 lam29n1 ) ( * Nl12main_k2 lam29n2 ) ( - ( - ( + ( + 0 ( * RFN1_main_i 1 ) ) RFN1_main_k ) RFN1_main_k ) ) ) 0 ) ( = ( + ( * Nl12main_m1 lam29n1 ) ( * Nl12main_m2 lam29n2 ) ( - ( - ( + 0 RFN1_main_m ) RFN1_main_m ) ) ) 0 ) ( = ( + ( * Nl12main_n1 lam29n1 ) ( * Nl12main_n2 lam29n2 ) ( - ( - ( + 0 RFN1_main_n ) RFN1_main_n ) ) ) 0 ) ( = ( + ( * 1 lam29n0 ) ( * Nl12main_N1 lam29n1 ) ( * Nl12main_N2 lam29n2 ) ( - ( - ( + 0 RFN1_main_N ) RFN1_main_N ) ) ) 0 ) ) ) ( or ( and ( and ( >= lam15n0 0 ) ( >= lam15n1 0 ) ( >= lam15n2 0 ) ( > ( + ( * 1 lam15n0 ) ( * Nl9CT1 lam15n1 ) ( * Nl9CT2 lam15n2 ) ( - 1 ( - RFN1_CT ) ) ) 0 ) ( = ( + ( * Nl9main_i1 lam15n1 ) ( * Nl9main_i2 lam15n2 ) ( - ( - RFN1_main_i ) ) ) 0 ) ( = ( + ( * 1 lam15n0 ) ( * Nl9main_j1 lam15n1 ) ( * Nl9main_j2 lam15n2 ) ( - ( - RFN1_main_j ) ) ) 0 ) ( = ( + ( * Nl9main_k1 lam15n1 ) ( * Nl9main_k2 lam15n2 ) ( - ( - RFN1_main_k ) ) ) 0 ) ( = ( + ( * ( - 1 ) lam15n0 ) ( * Nl9main_m1 lam15n1 ) ( * Nl9main_m2 lam15n2 ) ( - ( - RFN1_main_m ) ) ) 0 ) ( = ( + ( * Nl9main_n1 lam15n1 ) ( * Nl9main_n2 lam15n2 ) ( - ( - RFN1_main_n ) ) ) 0 ) ( = ( + ( * Nl9main_N1 lam15n1 ) ( * Nl9main_N2 lam15n2 ) ( - ( - RFN1_main_N ) ) ) 0 ) ) ( and ( >= lam16n0 0 ) ( >= lam16n1 0 ) ( >= lam16n2 0 ) ( > ( + ( * 1 lam16n0 ) ( * Nl9CT1 lam16n1 ) ( * Nl9CT2 lam16n2 ) ( - 1 ( + ( - ( + ( + RFN1_CT ( * RFN1_main_j 1 ) ) ( * RFN1_main_k 0 ) ) RFN1_CT ) 1 ) ) ) 0 ) ( = ( + ( * Nl9main_i1 lam16n1 ) ( * Nl9main_i2 lam16n2 ) ( - ( - ( + ( + 0 RFN1_main_i ) ( * RFN1_main_k 1 ) ) RFN1_main_i ) ) ) 0 ) ( = ( + ( * 1 lam16n0 ) ( * Nl9main_j1 lam16n1 ) ( * Nl9main_j2 lam16n2 ) ( - ( - ( + 0 ( * RFN1_main_j 1 ) ) RFN1_main_j ) ) ) 0 ) ( = ( + ( * Nl9main_k1 lam16n1 ) ( * Nl9main_k2 lam16n2 ) ( - ( - RFN1_main_k ) ) ) 0 ) ( = ( + ( * ( - 1 ) lam16n0 ) ( * Nl9main_m1 lam16n1 ) ( * Nl9main_m2 lam16n2 ) ( - ( - ( + 0 RFN1_main_m ) RFN1_main_m ) ) ) 0 ) ( = ( + ( * Nl9main_n1 lam16n1 ) ( * Nl9main_n2 lam16n2 ) ( - ( - ( + 0 RFN1_main_n ) RFN1_main_n ) ) ) 0 ) ( = ( + ( * Nl9main_N1 lam16n1 ) ( * Nl9main_N2 lam16n2 ) ( - ( - ( + 0 RFN1_main_N ) RFN1_main_N ) ) ) 0 ) ) ) ( and ( and ( >= lam19n0 0 ) ( >= lam19n1 0 ) ( >= lam19n2 0 ) ( >= lam19n3 0 ) ( > ( + ( * 2 lam19n1 ) ( * Nl9CT1 lam19n2 ) ( * Nl9CT2 lam19n3 ) ( - 1 ( - RFN1_CT ) ) ) 0 ) ( = ( + ( * 1 lam19n1 ) ( * Nl9main_i1 lam19n2 ) ( * Nl9main_i2 lam19n3 ) ( - ( - RFN1_main_i ) ) ) 0 ) ( = ( + ( * ( - 1 ) lam19n0 ) ( * Nl9main_j1 lam19n2 ) ( * Nl9main_j2 lam19n3 ) ( - ( - RFN1_main_j ) ) ) 0 ) ( = ( + ( * Nl9main_k1 lam19n2 ) ( * Nl9main_k2 lam19n3 ) ( - ( - RFN1_main_k ) ) ) 0 ) ( = ( + ( * 1 lam19n0 ) ( * Nl9main_m1 lam19n2 ) ( * Nl9main_m2 lam19n3 ) ( - ( - RFN1_main_m ) ) ) 0 ) ( = ( + ( * ( - 1 ) lam19n1 ) ( * Nl9main_n1 lam19n2 ) ( * Nl9main_n2 lam19n3 ) ( - ( - RFN1_main_n ) ) ) 0 ) ( = ( + ( * Nl9main_N1 lam19n2 ) ( * Nl9main_N2 lam19n3 ) ( - ( - RFN1_main_N ) ) ) 0 ) ) ( and ( >= lam20n0 0 ) ( >= lam20n1 0 ) ( >= lam20n2 0 ) ( >= lam20n3 0 ) ( > ( + ( * 2 lam20n1 ) ( * Nl9CT1 lam20n2 ) ( * Nl9CT2 lam20n3 ) ( - 1 ( + ( - ( + ( + RFN1_CT ( * RFN1_main_i 1 ) ) ( * RFN1_main_j 0 ) ) RFN1_CT ) 1 ) ) ) 0 ) ( = ( + ( * 1 lam20n1 ) ( * Nl9main_i1 lam20n2 ) ( * Nl9main_i2 lam20n3 ) ( - ( - ( + 0 ( * RFN1_main_i 1 ) ) RFN1_main_i ) ) ) 0 ) ( = ( + ( * ( - 1 ) lam20n0 ) ( * Nl9main_j1 lam20n2 ) ( * Nl9main_j2 lam20n3 ) ( - ( - RFN1_main_j ) ) ) 0 ) ( = ( + ( * Nl9main_k1 lam20n2 ) ( * Nl9main_k2 lam20n3 ) ( - ( - ( + 0 RFN1_main_k ) RFN1_main_k ) ) ) 0 ) ( = ( + ( * 1 lam20n0 ) ( * Nl9main_m1 lam20n2 ) ( * Nl9main_m2 lam20n3 ) ( - ( - ( + 0 RFN1_main_m ) RFN1_main_m ) ) ) 0 ) ( = ( + ( * ( - 1 ) lam20n1 ) ( * Nl9main_n1 lam20n2 ) ( * Nl9main_n2 lam20n3 ) ( - ( - ( + 0 RFN1_main_n ) RFN1_main_n ) ) ) 0 ) ( = ( + ( * Nl9main_N1 lam20n2 ) ( * Nl9main_N2 lam20n3 ) ( - ( - ( + 0 RFN1_main_N ) RFN1_main_N ) ) ) 0 ) ) ) ( and ( and ( >= lam23n0 0 ) ( >= lam23n1 0 ) ( >= lam23n2 0 ) ( > ( + ( * 1 lam23n0 ) ( * Nl12CT1 lam23n1 ) ( * Nl12CT2 lam23n2 ) ( - 1 ( - RFN1_CT ) ) ) 0 ) ( = ( + ( * Nl12main_i1 lam23n1 ) ( * Nl12main_i2 lam23n2 ) ( - ( - RFN1_main_i ) ) ) 0 ) ( = ( + ( * Nl12main_j1 lam23n1 ) ( * Nl12main_j2 lam23n2 ) ( - ( - RFN1_main_j ) ) ) 0 ) ( = ( + ( * 1 lam23n0 ) ( * Nl12main_k1 lam23n1 ) ( * Nl12main_k2 lam23n2 ) ( - ( - RFN1_main_k ) ) ) 0 ) ( = ( + ( * Nl12main_m1 lam23n1 ) ( * Nl12main_m2 lam23n2 ) ( - ( - RFN1_main_m ) ) ) 0 ) ( = ( + ( * Nl12main_n1 lam23n1 ) ( * Nl12main_n2 lam23n2 ) ( - ( - RFN1_main_n ) ) ) 0 ) ( = ( + ( * ( - 1 ) lam23n0 ) ( * Nl12main_N1 lam23n1 ) ( * Nl12main_N2 lam23n2 ) ( - ( - RFN1_main_N ) ) ) 0 ) ) ( and ( >= lam24n0 0 ) ( >= lam24n1 0 ) ( >= lam24n2 0 ) ( > ( + ( * 1 lam24n0 ) ( * Nl12CT1 lam24n1 ) ( * Nl12CT2 lam24n2 ) ( - 1 ( + ( - ( + RFN1_CT ( * RFN1_main_k 1 ) ) RFN1_CT ) 1 ) ) ) 0 ) ( = ( + ( * Nl12main_i1 lam24n1 ) ( * Nl12main_i2 lam24n2 ) ( - ( - ( + 0 RFN1_main_i ) RFN1_main_i ) ) ) 0 ) ( = ( + ( * Nl12main_j1 lam24n1 ) ( * Nl12main_j2 lam24n2 ) ( - ( - ( + 0 RFN1_main_j ) RFN1_main_j ) ) ) 0 ) ( = ( + ( * 1 lam24n0 ) ( * Nl12main_k1 lam24n1 ) ( * Nl12main_k2 lam24n2 ) ( - ( - ( + 0 ( * RFN1_main_k 1 ) ) RFN1_main_k ) ) ) 0 ) ( = ( + ( * Nl12main_m1 lam24n1 ) ( * Nl12main_m2 lam24n2 ) ( - ( - ( + 0 RFN1_main_m ) RFN1_main_m ) ) ) 0 ) ( = ( + ( * Nl12main_n1 lam24n1 ) ( * Nl12main_n2 lam24n2 ) ( - ( - ( + 0 RFN1_main_n ) RFN1_main_n ) ) ) 0 ) ( = ( + ( * ( - 1 ) lam24n0 ) ( * Nl12main_N1 lam24n1 ) ( * Nl12main_N2 lam24n2 ) ( - ( - ( + 0 RFN1_main_N ) RFN1_main_N ) ) ) 0 ) ) ) ( and ( and ( >= lam27n0 0 ) ( >= lam27n1 0 ) ( >= lam27n2 0 ) ( > ( + ( * Nl12CT1 lam27n1 ) ( * Nl12CT2 lam27n2 ) ( - 1 ( - RFN1_CT ) ) ) 0 ) ( = ( + ( * Nl12main_i1 lam27n1 ) ( * Nl12main_i2 lam27n2 ) ( - ( - RFN1_main_i ) ) ) 0 ) ( = ( + ( * Nl12main_j1 lam27n1 ) ( * Nl12main_j2 lam27n2 ) ( - ( - RFN1_main_j ) ) ) 0 ) ( = ( + ( * ( - 1 ) lam27n0 ) ( * Nl12main_k1 lam27n1 ) ( * Nl12main_k2 lam27n2 ) ( - ( - RFN1_main_k ) ) ) 0 ) ( = ( + ( * Nl12main_m1 lam27n1 ) ( * Nl12main_m2 lam27n2 ) ( - ( - RFN1_main_m ) ) ) 0 ) ( = ( + ( * Nl12main_n1 lam27n1 ) ( * Nl12main_n2 lam27n2 ) ( - ( - RFN1_main_n ) ) ) 0 ) ( = ( + ( * 1 lam27n0 ) ( * Nl12main_N1 lam27n1 ) ( * Nl12main_N2 lam27n2 ) ( - ( - RFN1_main_N ) ) ) 0 ) ) ( and ( >= lam28n0 0 ) ( >= lam28n1 0 ) ( >= lam28n2 0 ) ( > ( + ( * Nl12CT1 lam28n1 ) ( * Nl12CT2 lam28n2 ) ( - 1 ( + ( - ( + RFN1_CT ( * RFN1_main_i 0 ) ) RFN1_CT ) 1 ) ) ) 0 ) ( = ( + ( * Nl12main_i1 lam28n1 ) ( * Nl12main_i2 lam28n2 ) ( - ( - RFN1_main_i ) ) ) 0 ) ( = ( + ( * Nl12main_j1 lam28n1 ) ( * Nl12main_j2 lam28n2 ) ( - ( - ( + 0 RFN1_main_j ) RFN1_main_j ) ) ) 0 ) ( = ( + ( * ( - 1 ) lam28n0 ) ( * Nl12main_k1 lam28n1 ) ( * Nl12main_k2 lam28n2 ) ( - ( - ( + ( + 0 ( * RFN1_main_i 1 ) ) RFN1_main_k ) RFN1_main_k ) ) ) 0 ) ( = ( + ( * Nl12main_m1 lam28n1 ) ( * Nl12main_m2 lam28n2 ) ( - ( - ( + 0 RFN1_main_m ) RFN1_main_m ) ) ) 0 ) ( = ( + ( * Nl12main_n1 lam28n1 ) ( * Nl12main_n2 lam28n2 ) ( - ( - ( + 0 RFN1_main_n ) RFN1_main_n ) ) ) 0 ) ( = ( + ( * 1 lam28n0 ) ( * Nl12main_N1 lam28n1 ) ( * Nl12main_N2 lam28n2 ) ( - ( - ( + 0 RFN1_main_N ) RFN1_main_N ) ) ) 0 ) ) ) ) ) ( or ( and ( >= lam14n0 0 ) ( >= lam14n1 0 ) ( >= lam14n2 0 ) ( > ( + ( * 1 lam14n0 ) ( * Nl9CT1 lam14n1 ) ( * Nl9CT2 lam14n2 ) ( - 1 ) ) 0 ) ( = ( + ( * Nl9main_i1 lam14n1 ) ( * Nl9main_i2 lam14n2 ) ) 0 ) ( = ( + ( * 1 lam14n0 ) ( * Nl9main_j1 lam14n1 ) ( * Nl9main_j2 lam14n2 ) ) 0 ) ( = ( + ( * Nl9main_k1 lam14n1 ) ( * Nl9main_k2 lam14n2 ) ) 0 ) ( = ( + ( * ( - 1 ) lam14n0 ) ( * Nl9main_m1 lam14n1 ) ( * Nl9main_m2 lam14n2 ) ) 0 ) ( = ( + ( * Nl9main_n1 lam14n1 ) ( * Nl9main_n2 lam14n2 ) ) 0 ) ( = ( + ( * Nl9main_N1 lam14n1 ) ( * Nl9main_N2 lam14n2 ) ) 0 ) ) ( and ( >= lam18n0 0 ) ( >= lam18n1 0 ) ( >= lam18n2 0 ) ( >= lam18n3 0 ) ( > ( + ( * 2 lam18n1 ) ( * Nl9CT1 lam18n2 ) ( * Nl9CT2 lam18n3 ) ( - 1 ) ) 0 ) ( = ( + ( * 1 lam18n1 ) ( * Nl9main_i1 lam18n2 ) ( * Nl9main_i2 lam18n3 ) ) 0 ) ( = ( + ( * ( - 1 ) lam18n0 ) ( * Nl9main_j1 lam18n2 ) ( * Nl9main_j2 lam18n3 ) ) 0 ) ( = ( + ( * Nl9main_k1 lam18n2 ) ( * Nl9main_k2 lam18n3 ) ) 0 ) ( = ( + ( * 1 lam18n0 ) ( * Nl9main_m1 lam18n2 ) ( * Nl9main_m2 lam18n3 ) ) 0 ) ( = ( + ( * ( - 1 ) lam18n1 ) ( * Nl9main_n1 lam18n2 ) ( * Nl9main_n2 lam18n3 ) ) 0 ) ( = ( + ( * Nl9main_N1 lam18n2 ) ( * Nl9main_N2 lam18n3 ) ) 0 ) ) ( and ( >= lam22n0 0 ) ( >= lam22n1 0 ) ( >= lam22n2 0 ) ( > ( + ( * 1 lam22n0 ) ( * Nl12CT1 lam22n1 ) ( * Nl12CT2 lam22n2 ) ( - 1 ) ) 0 ) ( = ( + ( * Nl12main_i1 lam22n1 ) ( * Nl12main_i2 lam22n2 ) ) 0 ) ( = ( + ( * Nl12main_j1 lam22n1 ) ( * Nl12main_j2 lam22n2 ) ) 0 ) ( = ( + ( * 1 lam22n0 ) ( * Nl12main_k1 lam22n1 ) ( * Nl12main_k2 lam22n2 ) ) 0 ) ( = ( + ( * Nl12main_m1 lam22n1 ) ( * Nl12main_m2 lam22n2 ) ) 0 ) ( = ( + ( * Nl12main_n1 lam22n1 ) ( * Nl12main_n2 lam22n2 ) ) 0 ) ( = ( + ( * ( - 1 ) lam22n0 ) ( * Nl12main_N1 lam22n1 ) ( * Nl12main_N2 lam22n2 ) ) 0 ) ) ( and ( >= lam26n0 0 ) ( >= lam26n1 0 ) ( >= lam26n2 0 ) ( > ( + ( * Nl12CT1 lam26n1 ) ( * Nl12CT2 lam26n2 ) ( - 1 ) ) 0 ) ( = ( + ( * Nl12main_i1 lam26n1 ) ( * Nl12main_i2 lam26n2 ) ) 0 ) ( = ( + ( * Nl12main_j1 lam26n1 ) ( * Nl12main_j2 lam26n2 ) ) 0 ) ( = ( + ( * ( - 1 ) lam26n0 ) ( * Nl12main_k1 lam26n1 ) ( * Nl12main_k2 lam26n2 ) ) 0 ) ( = ( + ( * Nl12main_m1 lam26n1 ) ( * Nl12main_m2 lam26n2 ) ) 0 ) ( = ( + ( * Nl12main_n1 lam26n1 ) ( * Nl12main_n2 lam26n2 ) ) 0 ) ( = ( + ( * 1 lam26n0 ) ( * Nl12main_N1 lam26n1 ) ( * Nl12main_N2 lam26n2 ) ) 0 ) ) ) ))
(check-sat)
(exit)
